NAME : amz1660.91334_89834.tour
COMMENT : Cost = 91334_89834
COMMENT : Found by LKH-AMZ [Keld Helsgaun] Sun May 11 13:22:25 2025
COMMENT : TW viol.: 0 #: 0
TYPE : TOUR
DIMENSION : 105
TOUR_SECTION
61
65
9
66
24
6
56
64
4
70
75
63
43
5
51
71
53
28
46
98
79
27
69
2
90
32
39
48
93
54
57
44
3
81
99
13
78
26
77
103
80
45
47
16
42
38
12
18
20
72
91
55
85
31
87
14
73
29
89
58
84
95
76
36
41
100
30
67
68
102
86
1
25
17
97
7
34
88
40
101
49
21
83
60
35
22
50
11
52
92
96
33
37
82
19
74
15
10
62
105
23
94
59
8
104
-1
EOF
